results_rootrelaxation/bin018_060_033.srr.sol
solution status: optimal solution found
objective value:                                    0
_var2131_                           0.142711745138645 	(obj:0)
_var2766_                           0.328646195201693 	(obj:0)
_var2769_                          0.0232037016413096 	(obj:0)
_var2789_                           0.356532531098335 	(obj:0)
_var2792_                            0.15434821531905 	(obj:0)
_var2796_                         0.00374687684479011 	(obj:0)
_var2811_                            0.14233940984177 	(obj:0)
_var2816_                           0.013566847331772 	(obj:0)
_var2818_                           0.167575701561529 	(obj:0)
_var2820_                          0.0867567515134787 	(obj:0)
_var2824_                           0.124461940282469 	(obj:0)
_var2825_                          0.0641583549371231 	(obj:0)
_var2828_                          0.0159894703521529 	(obj:0)
_var2829_                           0.160077264161412 	(obj:0)
_var2830_                          0.0967867672997028 	(obj:0)
_var2831_                            0.13922821252324 	(obj:0)
_var2832_                          0.0797880562314569 	(obj:0)
_var2833_                           0.101282966042585 	(obj:0)
_var2838_                          0.0640418176536206 	(obj:0)
_var2839_                          0.0840713068786421 	(obj:0)
_var2841_                            0.13649716353949 	(obj:0)
_var2842_                            0.06058076646941 	(obj:0)
_var2854_                           0.132599062085758 	(obj:0)
_var2876_                           0.217368174163296 	(obj:0)
_var2877_                           0.057786322960976 	(obj:0)
_var2881_                          0.0871563597516103 	(obj:0)
_var2883_                          0.0158288180426238 	(obj:0)
_var2889_                          0.0326995444074743 	(obj:0)
_var2890_                          0.0828140747175924 	(obj:0)
_var2892_                            0.12403787410936 	(obj:0)
_var2893_                          0.0546104954490369 	(obj:0)
_var2896_                         0.00718890140358652 	(obj:0)
_var2898_                          0.0912947496891313 	(obj:0)
_var2899_                          0.0882868657362323 	(obj:0)
_var2901_                           0.161319304181643 	(obj:0)
_var2905_                          0.0709560757227884 	(obj:0)
_var2907_                          0.0130188217229925 	(obj:0)
_var2914_                           0.444473986244724 	(obj:0)
_var2916_                          0.0229351423927263 	(obj:0)
_var2917_                           0.308384971489527 	(obj:0)
_var2919_                           0.152569284914361 	(obj:0)
_var2932_                          0.0179004060451606 	(obj:0)
_var2940_                           0.145070377512874 	(obj:0)
_var2945_                           0.395675413209288 	(obj:0)
_var2947_                           0.102799489474097 	(obj:0)
_var2949_                            0.14354251825671 	(obj:0)
_var2957_                           0.267490671217406 	(obj:0)
_var2960_                           0.139260839537923 	(obj:0)
_var2962_                         0.00174839058626164 	(obj:0)
_var2964_                          0.0847169719932377 	(obj:0)
_var2966_                           0.281017756055021 	(obj:0)
_var2967_                          0.0876326379169369 	(obj:0)
_var2968_                           0.125188939782508 	(obj:0)
_var2969_                           0.257586750349776 	(obj:0)
_var2971_                           0.196343173018307 	(obj:0)
_var2975_                          0.0780576410550222 	(obj:0)
_var2978_                          0.0489476779944016 	(obj:0)
_var2979_                          0.0149589630671378 	(obj:0)
_var2981_                          0.0200600163178581 	(obj:0)
_var2982_                           0.109346153730226 	(obj:0)
_var2984_                           0.183864248979068 	(obj:0)
_var2990_                           0.243588238431519 	(obj:0)
_var2992_                          0.0148319082619844 	(obj:0)
_var2993_                           0.286708877852864 	(obj:0)
_var2997_                           0.243592046611832 	(obj:0)
_var3001_                          0.0500620258409642 	(obj:0)
_var3003_                           0.151426328257693 	(obj:0)
_var3005_                           0.235594960290608 	(obj:0)
_var3006_                          0.0769365513801693 	(obj:0)
_var3007_                           0.191326602967675 	(obj:0)
_var3008_                           0.146165327529087 	(obj:0)
_var3009_                           0.337934750095583 	(obj:0)
_var3017_                          0.0311270367912001 	(obj:0)
_var3018_                          0.0819153644756056 	(obj:0)
_var3019_                          0.0586782535948922 	(obj:0)
_var3024_                          0.0575403218400055 	(obj:0)
_var3028_                           0.250943925434839 	(obj:0)
_var3029_                          0.0283549345612717 	(obj:0)
_var3031_                           0.281567166217469 	(obj:0)
_var3032_                          0.0171583858084366 	(obj:0)
_var3033_                           0.127848684285934 	(obj:0)
_var3034_                         0.00196698417034574 	(obj:0)
_var3038_                          0.0459700372532627 	(obj:0)
_var3040_                           0.298582258895212 	(obj:0)
_var3045_                           0.155678575885038 	(obj:0)
_var3046_                           0.194952842842003 	(obj:0)
_var3047_                          0.0459100845101657 	(obj:0)
_var3048_                          0.0589702890501689 	(obj:0)
_var3049_                          0.0443651677115243 	(obj:0)
_var3051_                          0.0678768211068523 	(obj:0)
_var3052_                           0.198518464547032 	(obj:0)
_var3053_                          0.0366407490780887 	(obj:0)
_var3054_                          0.0493332389268596 	(obj:0)
_var3057_                          0.0129569180552337 	(obj:0)
_var3059_                          0.0602131331254581 	(obj:0)
_var3063_                           0.120754206619769 	(obj:0)
_var3067_                          0.0163338019459781 	(obj:0)
_var3069_                         0.00383250854632344 	(obj:0)
_var3070_                          0.0991628455037801 	(obj:0)
_var3072_                            0.15051036947499 	(obj:0)
_var3073_                           0.265598092713969 	(obj:0)
_var3075_                          0.0609277383829539 	(obj:0)
_var3076_                           0.205724556591698 	(obj:0)
_var3080_                          0.0206049558728386 	(obj:0)
_var3082_                           0.188447613218079 	(obj:0)
_var3083_                           0.139119427413885 	(obj:0)
_var3085_                         0.00470498679165458 	(obj:0)
_var3086_                          0.0507029625308814 	(obj:0)
_var3088_                           0.179690294284281 	(obj:0)
_var3093_                          0.0126413362582396 	(obj:0)
_var3094_                             0.1790952788741 	(obj:0)
_var3095_                           0.105743545310821 	(obj:0)
_var3097_                            0.12279103070965 	(obj:0)
_var3098_                           0.179363577125688 	(obj:0)
_var3099_                         0.00912489671676752 	(obj:0)
_var3106_                           0.224546605026575 	(obj:0)
_var3107_                          0.0467650369431424 	(obj:0)
_var3108_                           0.260605473967789 	(obj:0)
_var3109_                           0.121810027191644 	(obj:0)
_var3111_                          0.0823427043367431 	(obj:0)
_var3112_                          0.0996596731686067 	(obj:0)
_var3115_                           0.150209033221432 	(obj:0)
_var3116_                          0.0104345072295596 	(obj:0)
_var3118_                          0.0293642704933993 	(obj:0)
_var3119_                           0.085496427348252 	(obj:0)
_var3121_                           0.102957307774965 	(obj:0)
_var3122_                          0.0857942706253916 	(obj:0)
_var3123_                          0.0977575081291187 	(obj:0)
_var3124_                          0.0881230354724455 	(obj:0)
_var3125_                           0.217499741206429 	(obj:0)
_var3127_                          0.0125080073122129 	(obj:0)
_var3128_                           0.112215863508375 	(obj:0)
_var3129_                          0.0666005581019019 	(obj:0)
_var3131_                           0.016443556031914 	(obj:0)
_var3133_                           0.173956372970253 	(obj:0)
_var3134_                           0.283551014544806 	(obj:0)
_var3135_                            0.10869466933972 	(obj:0)
_var3136_                          0.0723738438863303 	(obj:0)
_var3137_                          0.0133278839319224 	(obj:0)
_var3138_                           0.133805376954379 	(obj:0)
_var3142_                           0.133419056495167 	(obj:0)
_var3144_                          0.0534452283919255 	(obj:0)
_var3145_                          0.0156176505489659 	(obj:0)
_var3146_                          0.0847548144674713 	(obj:0)
_var3147_                          0.0691196812108801 	(obj:0)
_var3148_                          0.0504330043492873 	(obj:0)
_var3150_                          0.0339071079858717 	(obj:0)
_var3152_                         0.00386116979860585 	(obj:0)
_var3153_                          0.0150084659632416 	(obj:0)
_var3154_                          0.0796936825790671 	(obj:0)
_var3155_                          0.0395646815477805 	(obj:0)
_var3160_                          0.0112914802228625 	(obj:0)
